2 15 21 71 16 25 23 56 75 52 55 17 6 41 73 63 62 18 30 49 29 5 42 47 22 9 38 58 1 67 76 20 59 51 8 11 0 66 32 78 54 53 34 44 65 77 26 79 13 7 4 48 50 74 60 19 27 39 14 57 64 69 28 35 43 3 45 36 68 24 40 70 61 31 10 37 72 46 33 12